51

Cs         1.97532        1.97532        7.75678
Ca         1.97532        1.97532       13.21589
Ca         1.97532        1.97532        2.29767
Ta         0.00000        0.00000        0.00000
Ta         0.00000        0.00000        4.27302
Ta         0.00000        0.00000       11.24053
O          0.00000        0.00000        9.44209
O          0.00000        0.00000        6.07146
O          1.97532        0.00000       11.65452
O          0.00000        1.97532       11.65452
O          1.97532        0.00000        3.85903
O          0.00000        1.97532        3.85903
O          0.00000        1.97532        0.00000
O          1.97532        0.00000        0.00000
O          0.00000        0.00000        1.96957
O          0.00000        0.00000       13.54398
O          0.00000        3.95063        9.44209
O          0.00000        3.95063        6.07146
O          0.00000        3.95063        1.96957
O          0.00000        3.95063       13.54398
O          3.95063        0.00000        9.44209
O          3.95063        0.00000        6.07146
O          3.95063        0.00000        1.96957
O          3.95063        0.00000       13.54398
O          3.95063        3.95063        9.44209
O          3.95063        3.95063        6.07146
O          3.95063        3.95063        1.96957
O          3.95063        3.95063       13.54398
O          1.97532        3.95063       11.65452
O          3.95063        1.97532       11.65452
O          1.97532        3.95063        3.85903
O          3.95063        1.97532        3.85903
O          3.95063        1.97532        0.00000
O          1.97532        3.95063        0.00000
O          3.95063        1.97532       15.51355
O          1.97532        3.95063       15.51355
O          0.00000        1.97532       15.51355
O          1.97532        0.00000       15.51355
Ta         0.00000        3.95063        0.00000
Ta         3.95063        0.00000        0.00000
Ta         3.95063        3.95063        0.00000
Ta         0.00000        0.00000       15.51355
Ta         0.00000        3.95063       15.51355
Ta         3.95063        0.00000       15.51355
Ta         3.95063        3.95063       15.51355
Ta         0.00000        3.95063        4.27302
Ta         0.00000        3.95063       11.24053
Ta         3.95063        0.00000        4.27302
Ta         3.95063        0.00000       11.24053
Ta         3.95063        3.95063        4.27302
Ta         3.95063        3.95063       11.24053
